p cnf 39 169
1 2 3 0 
-1 -2 0 
-1 -3 0 
-2 -3 0 
4 5 6 0 
-4 -5 0 
-4 -6 0 
-5 -6 0 
7 8 9 0 
-7 -8 0 
-7 -9 0 
-8 -9 0 
10 11 12 0 
-10 -11 0 
-10 -12 0 
-11 -12 0 
13 14 15 0 
-13 -14 0 
-13 -15 0 
-14 -15 0 
16 17 18 0 
-16 -17 0 
-16 -18 0 
-17 -18 0 
19 20 21 0 
-19 -20 0 
-19 -21 0 
-20 -21 0 
22 23 24 0 
-22 -23 0 
-22 -24 0 
-23 -24 0 
25 26 27 0 
-25 -26 0 
-25 -27 0 
-26 -27 0 
28 29 30 0 
-28 -29 0 
-28 -30 0 
-29 -30 0 
31 32 33 0 
-31 -32 0 
-31 -33 0 
-32 -33 0 
34 35 36 0 
-34 -35 0 
-34 -36 0 
-35 -36 0 
37 38 39 0 
-37 -38 0 
-37 -39 0 
-38 -39 0 
-1 -37 0
-2 -38 0
-3 -39 0
-1 -31 0
-2 -32 0
-3 -33 0
-1 -22 0
-2 -23 0
-3 -24 0
-1 -16 0
-2 -17 0
-3 -18 0
-1 -13 0
-2 -14 0
-3 -15 0
-1 -4 0
-2 -5 0
-3 -6 0
-4 -31 0
-5 -32 0
-6 -33 0
-4 -19 0
-5 -20 0
-6 -21 0
-4 -16 0
-5 -17 0
-6 -18 0
-4 -13 0
-5 -14 0
-6 -15 0
-4 -10 0
-5 -11 0
-6 -12 0
-4 -1 0
-5 -2 0
-6 -3 0
-7 -37 0
-8 -38 0
-9 -39 0
-7 -31 0
-8 -32 0
-9 -33 0
-7 -28 0
-8 -29 0
-9 -30 0
-7 -25 0
-8 -26 0
-9 -27 0
-7 -19 0
-8 -20 0
-9 -21 0
-7 -16 0
-8 -17 0
-9 -18 0
-7 -10 0
-8 -11 0
-9 -12 0
-10 -25 0
-11 -26 0
-12 -27 0
-10 -16 0
-11 -17 0
-12 -18 0
-10 -13 0
-11 -14 0
-12 -15 0
-10 -7 0
-11 -8 0
-12 -9 0
-10 -4 0
-11 -5 0
-12 -6 0
-13 -37 0
-14 -38 0
-15 -39 0
-13 -34 0
-14 -35 0
-15 -36 0
-13 -25 0
-14 -26 0
-15 -27 0
-13 -16 0
-14 -17 0
-15 -18 0
-13 -10 0
-14 -11 0
-15 -12 0
-13 -4 0
-14 -5 0
-15 -6 0
-13 -1 0
-14 -2 0
-15 -3 0
-16 -37 0
-17 -38 0
-18 -39 0
-16 -31 0
-17 -32 0
-18 -33 0
-16 -28 0
-17 -29 0
-18 -30 0
-16 -25 0
-17 -26 0
-18 -27 0
-16 -13 0
-17 -14 0
-18 -15 0
-16 -10 0
-17 -11 0
-18 -12 0
-16 -7 0
-17 -8 0
-18 -9 0
-16 -4 0
-17 -5 0
-18 -6 0
-16 -1 0
-17 -2 0
-18 -3 0
-19 -37 0
-20 -38 0
-21 -39 0
-19 -34 0
-20 -35 0
-21 -36 0
-19 -31 0
-20 -32 0
-21 -33 0
-19 -28 0
-20 -29 0
-21 -30 0
-19 -7 0
-20 -8 0
-21 -9 0
-19 -4 0
-20 -5 0
-21 -6 0
-22 -25 0
-23 -26 0
-24 -27 0
-22 -1 0
-23 -2 0
-24 -3 0
-25 -37 0
-26 -38 0
-27 -39 0
-25 -22 0
-26 -23 0
-27 -24 0
-25 -16 0
-26 -17 0
-27 -18 0
-25 -13 0
-26 -14 0
-27 -15 0
-25 -10 0
-26 -11 0
-27 -12 0
-25 -7 0
-26 -8 0
-27 -9 0
-28 -34 0
-29 -35 0
-30 -36 0
-28 -31 0
-29 -32 0
-30 -33 0
-28 -19 0
-29 -20 0
-30 -21 0
-28 -16 0
-29 -17 0
-30 -18 0
-28 -7 0
-29 -8 0
-30 -9 0
-31 -37 0
-32 -38 0
-33 -39 0
-31 -34 0
-32 -35 0
-33 -36 0
-31 -28 0
-32 -29 0
-33 -30 0
-31 -19 0
-32 -20 0
-33 -21 0
-31 -16 0
-32 -17 0
-33 -18 0
-31 -7 0
-32 -8 0
-33 -9 0
-31 -4 0
-32 -5 0
-33 -6 0
-31 -1 0
-32 -2 0
-33 -3 0
-34 -31 0
-35 -32 0
-36 -33 0
-34 -28 0
-35 -29 0
-36 -30 0
-34 -19 0
-35 -20 0
-36 -21 0
-34 -13 0
-35 -14 0
-36 -15 0
-37 -31 0
-38 -32 0
-39 -33 0
-37 -25 0
-38 -26 0
-39 -27 0
-37 -19 0
-38 -20 0
-39 -21 0
-37 -16 0
-38 -17 0
-39 -18 0
-37 -13 0
-38 -14 0
-39 -15 0
-37 -7 0
-38 -8 0
-39 -9 0
-37 -1 0
-38 -2 0
-39 -3 0
